(set-logic QF_S)
(declare-fun var0 () String)
(declare-fun var1 () String)
(declare-fun var2 () Int)
(declare-fun var3 () String)
(declare-fun var4 () Int)
(declare-fun var5 () String)
(declare-fun var6 () Int)
(declare-fun var7 () Int)
(assert (< (str.indexof var0 var1 var2) (str.indexof var3 "DH]Cn" var4)))
(assert (str.prefixof (str.at var5 var6) (str.replace var3 var1 var5)))
(assert (<= (str.indexof var0 var5 var7) (str.indexof var1 "" var2)))
(assert (not (<= 183 var4)))
(check-sat)